Route #1: 44 67 88 40
Route #2: 89 98 99 62 71
Route #3: 32 33 53 73 95 24
Route #4: 30 85 11 79
Route #5: 1 70 54
Route #6: 19 97 27
Route #7: 93 75
Route #8: 39 10 18
Route #9: 76 55 16 69
Route #10: 52 91 50
Route #11: 15 22 41 20
Route #12: 59 60 82
Route #13: 80 94 56 21
Route #14: 8 17
Route #15: 14 49 6 37 87
Route #16: 68 90 84 66
Route #17: 25 65 78 42 28
Route #18: 57 72 36 29 43 45 2 7
Route #19: 63 77 3
Route #20: 4 13 74
Route #21: 100 61 23
Route #22: 81 51 83
Route #23: 5 12 58
Route #24: 31 46 35
Route #25: 34 64 96 48 26 47 38
Route #26: 86 9 92
Cost 27591.0000
Time 16.0009